3 * nvars
2 * nblocks
2 -6 * blocksizes
* objective
1 1 -1
* nonzeroes of the constraints with variable (0: constant part) block row column value
1 1 1 1 2
1 1 2 2 2
2 1 1 1 3
2 1 2 2 3
3 1 1 1 1
3 1 2 2 1
3 1 1 2 1
0 1 1 1 1
0 1 2 2 1
3 2 1 1 -1
0 2 1 1 -10
3 2 2 2 1
1 2 3 3 -1
0 2 3 3 -1
1 2 4 4 1
2 2 5 5 -1
0 2 5 5 -1
2 2 6 6 1
*INTEGER
*1
*2

